data/rand/rand_054.gr
p tdp 15 70
1 2
1 3
1 4
1 6
1 7
1 8
1 10
1 11
1 13
1 14
1 15
2 3
2 4
2 5
2 7
2 9
2 10
2 11
2 14
2 15
3 4
3 7
3 11
3 13
3 14
3 15
4 5
4 6
4 7
4 8
4 9
4 10
4 11
4 14
4 15
5 6
5 7
5 8
5 9
5 10
5 12
5 15
6 8
6 11
6 12
6 13
6 14
6 15
7 8
7 9
7 10
7 11
7 12
7 14
8 9
8 10
8 12
8 13
8 14
8 15
9 13
9 14
9 15
10 14
10 15
11 12
11 13
11 15
12 15
13 14
