solutions/best/rand/rand_054.sol
11
0
8
2
1
4
8
5
13
2
2
7
6
15
11
14
